356,355
552,7
792,64
1020,67
977,110
705,423
681,346
468,298
469,194
644,292
681,346
996,635
885,806
1028,583
1125,476
914,173
792,64
681,16
552,7
681,16
795,369
801,406
914,173
927,67
912,-48
885,806
751,850
826,511
814,474
227,637
477,806
649,613
681,616
769,527
611,503
681,616
826,511
1081,610
1125,476
1081,202
814,474
705,423
618,469
468,298
227,637
417,770
561,776
618,469
435,67
477,6
435,67
644,292
